NAME : pr124.169141.tour
COMMENT : Cost = 22596_169141
COMMENT : Found by LKH [Keld Helsgaun] Thu Nov 16 17:37:15 2017
TYPE : TOUR
DIMENSION : 143
TOUR_SECTION
1
2
125
3
126
7
127
4
128
27
129
6
130
28
131
32
132
29
133
31
134
5
135
25
136
30
137
105
89
24
140
55
56
57
85
90
102
101
91
58
36
35
138
59
61
60
67
83
81
82
84
115
116
117
118
119
120
121
122
123
124
100
99
98
97
96
95
94
93
92
80
79
78
77
76
75
74
73
72
71
70
69
68
64
63
65
66
62
33
34
141
21
20
19
18
17
16
9
10
11
12
13
14
15
51
50
49
48
47
46
52
53
54
45
44
43
42
41
22
139
26
37
86
103
114
113
112
111
110
109
87
39
23
142
38
108
107
106
104
88
40
143
8
-1
EOF
